problem_generation/data/GISP/train/er_n=68_m=1355_p=0.60_SET2_setparam=100.00_alpha=0.50_362.lp
maximize
OBJ:100x0 + 100x1 + 100x2 + 100x3 + 100x4 + 100x5 + 100x6 + 100x7 + 100x8 + 100x9 + 100x10 + 100x11 + 100x12 + 100x13 + 100x14 + 100x15 + 100x16 + 100x17 + 100x18 + 100x19 + 100x20 + 100x21 + 100x22 + 100x23 + 100x24 + 100x25 + 100x26 + 100x27 + 100x28 + 100x29 + 100x30 + 100x31 + 100x32 + 100x33 + 100x34 + 100x35 + 100x36 + 100x37 + 100x38 + 100x39 + 100x40 + 100x41 + 100x42 + 100x43 + 100x44 + 100x45 + 100x46 + 100x47 + 100x48 + 100x49 + 100x50 + 100x51 + 100x52 + 100x53 + 100x54 + 100x55 + 100x56 + 100x57 + 100x58 + 100x59 + 100x60 + 100x61 + 100x62 + 100x63 + 100x64 + 100x65 + 100x66 + 100x67 - y15_21 - y7_17 - y15_30 - y26_30 - y7_26 - y47_62 - y18_44 - y8_9 - y29_41 - y48_54 - y21_37 - y6_48 - y29_50 - y21_46 - y0_23 - y6_57 - y11_23 - y21_55 - y40_59 - y21_64 - y25_34 - y33_47 - y25_43 - y25_52 - y14_15 - y25_61 - y22_37 - y24_65 - y36_48 - y47_48 - y55_61 - y28_53 - y7_30 - y9_49 - y47_66 - y29_36 - y9_67 - y29_45 - y21_50 - y25_29 - y54_65 - y10_40 - y25_47 - y32_55 - y14_28 - y32_64 - y3_37 - y36_43 - y36_52 - y47_52 - y5_55 - y28_66 - y21_27 - y6_38 - y6_47 - y29_49 - y21_45 - y6_65 - y54_60 - y2_31 - y31_67 - y10_44 - y13_46 - y24_46 - y3_23 - y1_53 - y13_55 - y14_32 - y16_51 - y13_64 - y36_47 - y9_30 - y5_41 - y28_43 - y9_39 - y5_50 - y6_15 - y17_52 - y36_65 - y6_33 - y29_35 - y21_31 - y61_67 - y29_44 - y10_21 - y39_57 - y20_53 - y31_53 - y10_30 - y39_66 - y2_26 - y20_62 - y10_39 - y54_64 - y12_67 - y35_41 - y16_37 - y24_50 - y35_50 - y13_59 - y17_20 - y1_66 - y17_29 - y36_51 - y5_45 - y17_47 - y28_47 - y9_43 - y5_54 - y9_52 - y50_53 - y5_63 - y50_62 - y20_39 - y39_52 - y20_48 - y31_48 - y10_25 - y62_63 - y2_21 - y20_57 - y54_59 - y12_53 - y4_49 - y23_62 - y13_27 - y24_27 - y35_36 - y24_45 - y1_52 - y13_54 - y24_54 - y13_63 - y9_11 - y16_59 - y46_60 - y5_31 - y9_29 - y49_65 - y5_40 - y5_49 - y6_23 - y8_51 - y42_53 - y21_30 - y61_66 - y31_34 - y0_65 - y10_11 - y11_65 - y2_7 - y12_39 - y23_39 - y31_52 - y23_48 - y20_61 - y31_61 - y13_22 - y16_18 - y16_27 - y13_40 - y43_53 - y16_45 - y1_56 - y5_17 - y9_15 - y38_51 - y49_51 - y17_37 - y15_67 - y9_33 - y6_9 - y8_46 - y30_46 - y50_61 - y30_55 - y11_51 - y8_64 - y0_60 - y20_38 - y20_47 - y4_30 - y23_43 - y20_56 - y12_52 - y13_17 - y4_48 - y23_61 - y1_24 - y13_26 - y32_39 - y34_58 - y4_66 - y16_31 - y45_67 - y1_42 - y37_63 - y16_49 - y5_21 - y17_23 - y57_59 - y15_53 - y49_55 - y15_62 - y26_62 - y49_64 - y7_58 - y7_67 - y18_67 - y19_32 - y27_45 - y0_37 - y8_50 - y11_46 - y0_55 - y23_29 - y4_25 - y23_38 - y31_51 - y4_34 - y23_47 - y12_56 - y16_17 - y64_66 - y45_62 - y37_58 - y16_35 - y1_46 - y14_65 - y5_16 - y15_57 - y38_59 - y7_53 - y18_62 - y27_49 - y0_41 - y19_54 - y30_54 - y42_56 - y8_63 - y20_28 - y12_24 - y23_42 - y45_48 - y34_57 - y45_57 - y56_57 - y16_30 - y45_66 - y3_60 - y14_60 - y26_34 - y46_49 - y38_45 - y46_58 - y57_58 - y26_52 - y18_48 - y15_61 - y27_35 - y30_31 - y63_65 - y8_40 - y19_40 - y11_36 - y19_49 - y11_45 - y41_55 - y52_64 - y23_37 - y2_63 - y25_65 - y22_50 - y45_52 - y64_65 - y56_61 - y14_55 - y14_64 - y26_29 - y18_25 - y15_38 - y26_38 - y15_56 - y26_56 - y8_17 - y30_35 - y40_67 - y8_44 - y19_44 - y21_63 - y41_50 - y44_46 - y12_23 - y10_53 - y25_51 - y10_62 - y22_36 - y22_45 - y34_47 - y45_56 - y3_59 - y14_59 - y15_24 - y7_20 - y26_33 - y7_29 - y59_67 - y18_38 - y18_47 - y0_17 - y11_17 - y8_30 - y6_60 - y11_26 - y29_62 - y21_58 - y63_64 - y11_35 - y41_45 - y4_5 - y33_41 - y41_54 - y25_37 - y10_48 - y44_50 - y2_53 - y10_66 - y14_36 - y37_47 - y22_58 - y37_56 - y15_19 - y14_63 - y26_28 - y55_64 - y7_24 - y47_60 - y15_37 - y26_37 - y59_62 - y26_46 - y28_65 - y48_52 - y11_12 - y29_48 - y29_57 - y29_66 - y41_49 - y25_32 - y33_45 - y41_58 - y25_41 - y52_58 - y2_48 - y3_13 - y2_66 - y37_42 - y3_49 - y15_23 - y7_19 - y15_32 - y7_28 - y59_66 - y17_60 - y7_37 - y40_52 - y21_66 - y10_29 - y2_25 - y10_47 - y44_49 - y2_43 - y3_8 - y10_56 - y14_17 - y22_39 - y24_58 - y13_67 - y3_44 - y14_44 - y16_63 - y36_41 - y36_50 - y17_46 - y7_23 - y9_42 - y36_59 - y59_61 - y9_51 - y5_62 - y6_27 - y29_47 - y40_47 - y21_52 - y10_24 - y2_20 - y54_58 - y10_33 - y33_35 - y2_56 - y3_21 - y1_60 - y24_62 - y16_58 - y7_9 - y36_45 - y55_58 - y17_41 - y17_50 - y47_63 - y28_59 - y6_22 - y5_66 - y9_64 - y50_65 - y29_42 - y6_49 - y40_51 - y6_58 - y10_28 - y31_60 - y54_62 - y12_65 - y3_7 - y24_39 - y3_16 - y14_16 - y14_25 - y32_61 - y43_61 - y24_57 - y17_18 - y35_66 - y9_32 - y5_43 - y17_54 - y6_17 - y28_63 - y50_60 - y21_33 - y10_14 - y39_50 - y20_46 - y31_46 - y2_19 - y20_55 - y12_51 - y31_64 - y12_60 - y13_34 - y51_60 - y1_41 - y35_43 - y1_59 - y13_61 - y16_66 - y57_67 - y9_36 - y5_47 - y5_56 - y58_59 - y9_54 - y8_67 - y11_63 - y2_5 - y20_50 - y31_50 - y2_23 - y4_42 - y13_20 - y4_51 - y23_64 - y24_29 - y32_42 - y51_55 - y24_38 - y43_51 - y1_45 - y35_47 - y35_56 - y5_24 - y17_26 - y36_39 - y38_58 - y57_62 - y38_67 - y49_67 - y5_42 - y58_63 - y19_53 - y30_53 - y8_62 - y30_62 - y12_32 - y31_45 - y23_41 - y2_18 - y13_15 - y4_46 - y23_59 - y53_60 - y32_37 - y16_20 - y16_29 - y45_65 - y1_40 - y1_49 - y35_51 - y5_19 - y38_53 - y49_53 - y46_66 - y6_11 - y7_65 - y18_65 - y30_48 - y11_44 - y42_59 - y20_22 - y20_31 - y39_53 - y12_36 - y23_36 - y4_32 - y12_45 - y1_8 - y1_17 - y53_55 - y13_28 - y16_24 - y16_33 - y9_12 - y5_23 - y8_25 - y19_34 - y8_52 - y30_52 - y11_48 - y8_61 - y30_61 - y20_35 - y4_18 - y23_31 - y23_40 - y1_3 - y1_12 - y53_59 - y4_54 - y34_55 - y22_62 - y34_64 - y45_64 - y3_58 - y14_58 - y37_60 - y46_47 - y38_43 - y26_50 - y38_52 - y46_65 - y18_55 - y27_33 - y7_64 - y8_29 - y0_25 - y11_25 - y19_38 - y42_49 - y11_43 - y19_56 - y30_56 - y12_17 - y41_53 - y0_61 - y12_26 - y23_26 - y4_22 - y10_65 - y4_40 - y34_41 - y34_50 - y37_46 - y45_59 - y3_53 - y37_55 - y3_62 - y15_27 - y26_27 - y37_64 - y46_51 - y7_41 - y15_54 - y27_28 - y0_11 - y7_59 - y11_29 - y29_65 - y8_42 - y0_38 - y12_21 - y23_30 - y25_49 - y44_62 - y4_35 - y53_58 - y14_39 - y34_54 - y14_48 - y37_50 - y56_63 - y15_22 - y3_66 - y59_65 - y7_36 - y18_36 - y8_10 - y11_15 - y0_24 - y11_24 - y8_37 - y21_56 - y30_37 - y40_60 - y4_21 - y44_66 - y1_6 - y22_56 - y45_58 - y3_52 - y14_52 - y15_17 - y37_54 - y15_26 - y59_60 - y26_35 - y18_31 - y15_44 - y26_44 - y8_14 - y0_19 - y10_41 - y52_65 - y25_48 - y2_55 - y25_57 - y22_33 - y34_35 - y3_29 - y3_38 - y7_8
 Subject to
C1: x0+x2 <=1 
C2: x0+x4 <=1 
C3: x0+x5 <=1 
C4: x0+x8 <=1 
C5: x0+x11-y0_11 <=1 
C6: x0+x13 <=1 
C7: x0+x14 <=1 
C8: x0+x15 <=1 
C9: x0+x16 <=1 
C10: x0+x17-y0_17 <=1 
C11: x0+x18 <=1 
C12: x0+x19-y0_19 <=1 
C13: x0+x20 <=1 
C14: x0+x21 <=1 
C15: x0+x23-y0_23 <=1 
C16: x0+x24-y0_24 <=1 
C17: x0+x25-y0_25 <=1 
C18: x0+x26 <=1 
C19: x0+x27 <=1 
C20: x0+x30 <=1 
C21: x0+x31 <=1 
C22: x0+x32 <=1 
C23: x0+x33 <=1 
C24: x0+x34 <=1 
C25: x0+x36 <=1 
C26: x0+x37-y0_37 <=1 
C27: x0+x38-y0_38 <=1 
C28: x0+x41-y0_41 <=1 
C29: x0+x42 <=1 
C30: x0+x43 <=1 
C31: x0+x45 <=1 
C32: x0+x46 <=1 
C33: x0+x47 <=1 
C34: x0+x48 <=1 
C35: x0+x49 <=1 
C36: x0+x50 <=1 
C37: x0+x53 <=1 
C38: x0+x55-y0_55 <=1 
C39: x0+x57 <=1 
C40: x0+x58 <=1 
C41: x0+x60-y0_60 <=1 
C42: x0+x61-y0_61 <=1 
C43: x0+x62 <=1 
C44: x0+x65-y0_65 <=1 
C45: x0+x67 <=1 
C46: x1+x3-y1_3 <=1 
C47: x1+x5 <=1 
C48: x1+x6-y1_6 <=1 
C49: x1+x8-y1_8 <=1 
C50: x1+x12-y1_12 <=1 
C51: x1+x15 <=1 
C52: x1+x16 <=1 
C53: x1+x17-y1_17 <=1 
C54: x1+x19 <=1 
C55: x1+x20 <=1 
C56: x1+x21 <=1 
C57: x1+x24-y1_24 <=1 
C58: x1+x25 <=1 
C59: x1+x26 <=1 
C60: x1+x28 <=1 
C61: x1+x29 <=1 
C62: x1+x37 <=1 
C63: x1+x38 <=1 
C64: x1+x40-y1_40 <=1 
C65: x1+x41-y1_41 <=1 
C66: x1+x42-y1_42 <=1 
C67: x1+x43 <=1 
C68: x1+x45-y1_45 <=1 
C69: x1+x46-y1_46 <=1 
C70: x1+x48 <=1 
C71: x1+x49-y1_49 <=1 
C72: x1+x52-y1_52 <=1 
C73: x1+x53-y1_53 <=1 
C74: x1+x55 <=1 
C75: x1+x56-y1_56 <=1 
C76: x1+x59-y1_59 <=1 
C77: x1+x60-y1_60 <=1 
C78: x1+x63 <=1 
C79: x1+x64 <=1 
C80: x1+x66-y1_66 <=1 
C81: x2+x3 <=1 
C82: x2+x4 <=1 
C83: x2+x5-y2_5 <=1 
C84: x2+x7-y2_7 <=1 
C85: x2+x9 <=1 
C86: x2+x12 <=1 
C87: x2+x15 <=1 
C88: x2+x17 <=1 
C89: x2+x18-y2_18 <=1 
C90: x2+x19-y2_19 <=1 
C91: x2+x20-y2_20 <=1 
C92: x2+x21-y2_21 <=1 
C93: x2+x22 <=1 
C94: x2+x23-y2_23 <=1 
C95: x2+x25-y2_25 <=1 
C96: x2+x26-y2_26 <=1 
C97: x2+x28 <=1 
C98: x2+x31-y2_31 <=1 
C99: x2+x33 <=1 
C100: x2+x34 <=1 
C101: x2+x36 <=1 
C102: x2+x38 <=1 
C103: x2+x39 <=1 
C104: x2+x40 <=1 
C105: x2+x41 <=1 
C106: x2+x43-y2_43 <=1 
C107: x2+x46 <=1 
C108: x2+x47 <=1 
C109: x2+x48-y2_48 <=1 
C110: x2+x49 <=1 
C111: x2+x50 <=1 
C112: x2+x53-y2_53 <=1 
C113: x2+x55-y2_55 <=1 
C114: x2+x56-y2_56 <=1 
C115: x2+x60 <=1 
C116: x2+x61 <=1 
C117: x2+x63-y2_63 <=1 
C118: x2+x64 <=1 
C119: x2+x65 <=1 
C120: x2+x66-y2_66 <=1 
C121: x3+x4 <=1 
C122: x3+x6 <=1 
C123: x3+x7-y3_7 <=1 
C124: x3+x8-y3_8 <=1 
C125: x3+x9 <=1 
C126: x3+x13-y3_13 <=1 
C127: x3+x14 <=1 
C128: x3+x15 <=1 
C129: x3+x16-y3_16 <=1 
C130: x3+x18 <=1 
C131: x3+x19 <=1 
C132: x3+x20 <=1 
C133: x3+x21-y3_21 <=1 
C134: x3+x22 <=1 
C135: x3+x23-y3_23 <=1 
C136: x3+x24 <=1 
C137: x3+x26 <=1 
C138: x3+x29-y3_29 <=1 
C139: x3+x36 <=1 
C140: x3+x37-y3_37 <=1 
C141: x3+x38-y3_38 <=1 
C142: x3+x41 <=1 
C143: x3+x42 <=1 
C144: x3+x44-y3_44 <=1 
C145: x3+x47 <=1 
C146: x3+x49-y3_49 <=1 
C147: x3+x52-y3_52 <=1 
C148: x3+x53-y3_53 <=1 
C149: x3+x54 <=1 
C150: x3+x55 <=1 
C151: x3+x58-y3_58 <=1 
C152: x3+x59-y3_59 <=1 
C153: x3+x60-y3_60 <=1 
C154: x3+x62-y3_62 <=1 
C155: x3+x64 <=1 
C156: x3+x66-y3_66 <=1 
C157: x3+x67 <=1 
C158: x4+x5-y4_5 <=1 
C159: x4+x8 <=1 
C160: x4+x12 <=1 
C161: x4+x13 <=1 
C162: x4+x16 <=1 
C163: x4+x18-y4_18 <=1 
C164: x4+x19 <=1 
C165: x4+x21-y4_21 <=1 
C166: x4+x22-y4_22 <=1 
C167: x4+x24 <=1 
C168: x4+x25-y4_25 <=1 
C169: x4+x26 <=1 
C170: x4+x27 <=1 
C171: x4+x30-y4_30 <=1 
C172: x4+x32-y4_32 <=1 
C173: x4+x34-y4_34 <=1 
C174: x4+x35-y4_35 <=1 
C175: x4+x40-y4_40 <=1 
C176: x4+x41 <=1 
C177: x4+x42-y4_42 <=1 
C178: x4+x44 <=1 
C179: x4+x46-y4_46 <=1 
C180: x4+x48-y4_48 <=1 
C181: x4+x49-y4_49 <=1 
C182: x4+x50 <=1 
C183: x4+x51-y4_51 <=1 
C184: x4+x53 <=1 
C185: x4+x54-y4_54 <=1 
C186: x4+x56 <=1 
C187: x4+x57 <=1 
C188: x4+x59 <=1 
C189: x4+x61 <=1 
C190: x4+x63 <=1 
C191: x4+x65 <=1 
C192: x4+x66-y4_66 <=1 
C193: x4+x67 <=1 
C194: x5+x10 <=1 
C195: x5+x14 <=1 
C196: x5+x15 <=1 
C197: x5+x16-y5_16 <=1 
C198: x5+x17-y5_17 <=1 
C199: x5+x18 <=1 
C200: x5+x19-y5_19 <=1 
C201: x5+x21-y5_21 <=1 
C202: x5+x22 <=1 
C203: x5+x23-y5_23 <=1 
C204: x5+x24-y5_24 <=1 
C205: x5+x26 <=1 
C206: x5+x28 <=1 
C207: x5+x30 <=1 
C208: x5+x31-y5_31 <=1 
C209: x5+x32 <=1 
C210: x5+x34 <=1 
C211: x5+x36 <=1 
C212: x5+x37 <=1 
C213: x5+x38 <=1 
C214: x5+x40-y5_40 <=1 
C215: x5+x41-y5_41 <=1 
C216: x5+x42-y5_42 <=1 
C217: x5+x43-y5_43 <=1 
C218: x5+x45-y5_45 <=1 
C219: x5+x47-y5_47 <=1 
C220: x5+x49-y5_49 <=1 
C221: x5+x50-y5_50 <=1 
C222: x5+x52 <=1 
C223: x5+x53 <=1 
C224: x5+x54-y5_54 <=1 
C225: x5+x55-y5_55 <=1 
C226: x5+x56-y5_56 <=1 
C227: x5+x57 <=1 
C228: x5+x59 <=1 
C229: x5+x60 <=1 
C230: x5+x62-y5_62 <=1 
C231: x5+x63-y5_63 <=1 
C232: x5+x64 <=1 
C233: x5+x66-y5_66 <=1 
C234: x5+x67 <=1 
C235: x6+x9-y6_9 <=1 
C236: x6+x10 <=1 
C237: x6+x11-y6_11 <=1 
C238: x6+x12 <=1 
C239: x6+x14 <=1 
C240: x6+x15-y6_15 <=1 
C241: x6+x17-y6_17 <=1 
C242: x6+x19 <=1 
C243: x6+x21 <=1 
C244: x6+x22-y6_22 <=1 
C245: x6+x23-y6_23 <=1 
C246: x6+x25 <=1 
C247: x6+x27-y6_27 <=1 
C248: x6+x29 <=1 
C249: x6+x32 <=1 
C250: x6+x33-y6_33 <=1 
C251: x6+x36 <=1 
C252: x6+x37 <=1 
C253: x6+x38-y6_38 <=1 
C254: x6+x39 <=1 
C255: x6+x47-y6_47 <=1 
C256: x6+x48-y6_48 <=1 
C257: x6+x49-y6_49 <=1 
C258: x6+x52 <=1 
C259: x6+x54 <=1 
C260: x6+x55 <=1 
C261: x6+x56 <=1 
C262: x6+x57-y6_57 <=1 
C263: x6+x58-y6_58 <=1 
C264: x6+x60-y6_60 <=1 
C265: x6+x61 <=1 
C266: x6+x63 <=1 
C267: x6+x65-y6_65 <=1 
C268: x6+x66 <=1 
C269: x7+x8-y7_8 <=1 
C270: x7+x9-y7_9 <=1 
C271: x7+x10 <=1 
C272: x7+x11 <=1 
C273: x7+x12 <=1 
C274: x7+x15 <=1 
C275: x7+x17-y7_17 <=1 
C276: x7+x19-y7_19 <=1 
C277: x7+x20-y7_20 <=1 
C278: x7+x22 <=1 
C279: x7+x23-y7_23 <=1 
C280: x7+x24-y7_24 <=1 
C281: x7+x26-y7_26 <=1 
C282: x7+x27 <=1 
C283: x7+x28-y7_28 <=1 
C284: x7+x29-y7_29 <=1 
C285: x7+x30-y7_30 <=1 
C286: x7+x31 <=1 
C287: x7+x34 <=1 
C288: x7+x35 <=1 
C289: x7+x36-y7_36 <=1 
C290: x7+x37-y7_37 <=1 
C291: x7+x38 <=1 
C292: x7+x40 <=1 
C293: x7+x41-y7_41 <=1 
C294: x7+x42 <=1 
C295: x7+x45 <=1 
C296: x7+x53-y7_53 <=1 
C297: x7+x54 <=1 
C298: x7+x55 <=1 
C299: x7+x58-y7_58 <=1 
C300: x7+x59-y7_59 <=1 
C301: x7+x64-y7_64 <=1 
C302: x7+x65-y7_65 <=1 
C303: x7+x67-y7_67 <=1 
C304: x8+x9-y8_9 <=1 
C305: x8+x10-y8_10 <=1 
C306: x8+x11 <=1 
C307: x8+x12 <=1 
C308: x8+x14-y8_14 <=1 
C309: x8+x17-y8_17 <=1 
C310: x8+x18 <=1 
C311: x8+x19 <=1 
C312: x8+x20 <=1 
C313: x8+x25-y8_25 <=1 
C314: x8+x26 <=1 
C315: x8+x29-y8_29 <=1 
C316: x8+x30-y8_30 <=1 
C317: x8+x31 <=1 
C318: x8+x32 <=1 
C319: x8+x35 <=1 
C320: x8+x37-y8_37 <=1 
C321: x8+x38 <=1 
C322: x8+x39 <=1 
C323: x8+x40-y8_40 <=1 
C324: x8+x41 <=1 
C325: x8+x42-y8_42 <=1 
C326: x8+x44-y8_44 <=1 
C327: x8+x45 <=1 
C328: x8+x46-y8_46 <=1 
C329: x8+x48 <=1 
C330: x8+x50-y8_50 <=1 
C331: x8+x51-y8_51 <=1 
C332: x8+x52-y8_52 <=1 
C333: x8+x55 <=1 
C334: x8+x56 <=1 
C335: x8+x57 <=1 
C336: x8+x58 <=1 
C337: x8+x59 <=1 
C338: x8+x60 <=1 
C339: x8+x61-y8_61 <=1 
C340: x8+x62-y8_62 <=1 
C341: x8+x63-y8_63 <=1 
C342: x8+x64-y8_64 <=1 
C343: x8+x67-y8_67 <=1 
C344: x9+x10 <=1 
C345: x9+x11-y9_11 <=1 
C346: x9+x12-y9_12 <=1 
C347: x9+x13 <=1 
C348: x9+x14 <=1 
C349: x9+x15-y9_15 <=1 
C350: x9+x17 <=1 
C351: x9+x18 <=1 
C352: x9+x22 <=1 
C353: x9+x23 <=1 
C354: x9+x28 <=1 
C355: x9+x29-y9_29 <=1 
C356: x9+x30-y9_30 <=1 
C357: x9+x32-y9_32 <=1 
C358: x9+x33-y9_33 <=1 
C359: x9+x34 <=1 
C360: x9+x35 <=1 
C361: x9+x36-y9_36 <=1 
C362: x9+x39-y9_39 <=1 
C363: x9+x40 <=1 
C364: x9+x42-y9_42 <=1 
C365: x9+x43-y9_43 <=1 
C366: x9+x45 <=1 
C367: x9+x48 <=1 
C368: x9+x49-y9_49 <=1 
C369: x9+x51-y9_51 <=1 
C370: x9+x52-y9_52 <=1 
C371: x9+x54-y9_54 <=1 
C372: x9+x56 <=1 
C373: x9+x58 <=1 
C374: x9+x59 <=1 
C375: x9+x60 <=1 
C376: x9+x61 <=1 
C377: x9+x62 <=1 
C378: x9+x64-y9_64 <=1 
C379: x9+x65 <=1 
C380: x9+x66 <=1 
C381: x9+x67-y9_67 <=1 
C382: x10+x11-y10_11 <=1 
C383: x10+x14-y10_14 <=1 
C384: x10+x16 <=1 
C385: x10+x17 <=1 
C386: x10+x20 <=1 
C387: x10+x21-y10_21 <=1 
C388: x10+x24-y10_24 <=1 
C389: x10+x25-y10_25 <=1 
C390: x10+x27 <=1 
C391: x10+x28-y10_28 <=1 
C392: x10+x29-y10_29 <=1 
C393: x10+x30-y10_30 <=1 
C394: x10+x33-y10_33 <=1 
C395: x10+x35 <=1 
C396: x10+x39-y10_39 <=1 
C397: x10+x40-y10_40 <=1 
C398: x10+x41-y10_41 <=1 
C399: x10+x42 <=1 
C400: x10+x44-y10_44 <=1 
C401: x10+x45 <=1 
C402: x10+x47-y10_47 <=1 
C403: x10+x48-y10_48 <=1 
C404: x10+x49 <=1 
C405: x10+x52 <=1 
C406: x10+x53-y10_53 <=1 
C407: x10+x56-y10_56 <=1 
C408: x10+x57 <=1 
C409: x10+x58 <=1 
C410: x10+x59 <=1 
C411: x10+x60 <=1 
C412: x10+x61 <=1 
C413: x10+x62-y10_62 <=1 
C414: x10+x65-y10_65 <=1 
C415: x10+x66-y10_66 <=1 
C416: x11+x12-y11_12 <=1 
C417: x11+x14 <=1 
C418: x11+x15-y11_15 <=1 
C419: x11+x16 <=1 
C420: x11+x17-y11_17 <=1 
C421: x11+x19 <=1 
C422: x11+x20 <=1 
C423: x11+x21 <=1 
C424: x11+x23-y11_23 <=1 
C425: x11+x24-y11_24 <=1 
C426: x11+x25-y11_25 <=1 
C427: x11+x26-y11_26 <=1 
C428: x11+x29-y11_29 <=1 
C429: x11+x34 <=1 
C430: x11+x35-y11_35 <=1 
C431: x11+x36-y11_36 <=1 
C432: x11+x38 <=1 
C433: x11+x39 <=1 
C434: x11+x41 <=1 
C435: x11+x42 <=1 
C436: x11+x43-y11_43 <=1 
C437: x11+x44-y11_44 <=1 
C438: x11+x45-y11_45 <=1 
C439: x11+x46-y11_46 <=1 
C440: x11+x48-y11_48 <=1 
C441: x11+x49 <=1 
C442: x11+x51-y11_51 <=1 
C443: x11+x52 <=1 
C444: x11+x54 <=1 
C445: x11+x60 <=1 
C446: x11+x63-y11_63 <=1 
C447: x11+x65-y11_65 <=1 
C448: x11+x67 <=1 
C449: x12+x14 <=1 
C450: x12+x15 <=1 
C451: x12+x17-y12_17 <=1 
C452: x12+x19 <=1 
C453: x12+x21-y12_21 <=1 
C454: x12+x22 <=1 
C455: x12+x23-y12_23 <=1 
C456: x12+x24-y12_24 <=1 
C457: x12+x26-y12_26 <=1 
C458: x12+x27 <=1 
C459: x12+x29 <=1 
C460: x12+x31 <=1 
C461: x12+x32-y12_32 <=1 
C462: x12+x36-y12_36 <=1 
C463: x12+x38 <=1 
C464: x12+x39-y12_39 <=1 
C465: x12+x44 <=1 
C466: x12+x45-y12_45 <=1 
C467: x12+x51-y12_51 <=1 
C468: x12+x52-y12_52 <=1 
C469: x12+x53-y12_53 <=1 
C470: x12+x54 <=1 
C471: x12+x55 <=1 
C472: x12+x56-y12_56 <=1 
C473: x12+x58 <=1 
C474: x12+x60-y12_60 <=1 
C475: x12+x64 <=1 
C476: x12+x65-y12_65 <=1 
C477: x12+x67-y12_67 <=1 
C478: x13+x15-y13_15 <=1 
C479: x13+x17-y13_17 <=1 
C480: x13+x20-y13_20 <=1 
C481: x13+x22-y13_22 <=1 
C482: x13+x23 <=1 
C483: x13+x24 <=1 
C484: x13+x26-y13_26 <=1 
C485: x13+x27-y13_27 <=1 
C486: x13+x28-y13_28 <=1 
C487: x13+x29 <=1 
C488: x13+x33 <=1 
C489: x13+x34-y13_34 <=1 
C490: x13+x35 <=1 
C491: x13+x36 <=1 
C492: x13+x40-y13_40 <=1 
C493: x13+x41 <=1 
C494: x13+x42 <=1 
C495: x13+x43 <=1 
C496: x13+x45 <=1 
C497: x13+x46-y13_46 <=1 
C498: x13+x48 <=1 
C499: x13+x54-y13_54 <=1 
C500: x13+x55-y13_55 <=1 
C501: x13+x57 <=1 
C502: x13+x59-y13_59 <=1 
C503: x13+x61-y13_61 <=1 
C504: x13+x62 <=1 
C505: x13+x63-y13_63 <=1 
C506: x13+x64-y13_64 <=1 
C507: x13+x65 <=1 
C508: x13+x66 <=1 
C509: x13+x67-y13_67 <=1 
C510: x14+x15-y14_15 <=1 
C511: x14+x16-y14_16 <=1 
C512: x14+x17-y14_17 <=1 
C513: x14+x18 <=1 
C514: x14+x20 <=1 
C515: x14+x25-y14_25 <=1 
C516: x14+x26 <=1 
C517: x14+x28-y14_28 <=1 
C518: x14+x30 <=1 
C519: x14+x32-y14_32 <=1 
C520: x14+x33 <=1 
C521: x14+x34 <=1 
C522: x14+x36-y14_36 <=1 
C523: x14+x39-y14_39 <=1 
C524: x14+x41 <=1 
C525: x14+x42 <=1 
C526: x14+x44-y14_44 <=1 
C527: x14+x47 <=1 
C528: x14+x48-y14_48 <=1 
C529: x14+x49 <=1 
C530: x14+x50 <=1 
C531: x14+x51 <=1 
C532: x14+x52-y14_52 <=1 
C533: x14+x53 <=1 
C534: x14+x54 <=1 
C535: x14+x55-y14_55 <=1 
C536: x14+x56 <=1 
C537: x14+x58-y14_58 <=1 
C538: x14+x59-y14_59 <=1 
C539: x14+x60-y14_60 <=1 
C540: x14+x61 <=1 
C541: x14+x63-y14_63 <=1 
C542: x14+x64-y14_64 <=1 
C543: x14+x65-y14_65 <=1 
C544: x14+x66 <=1 
C545: x15+x17-y15_17 <=1 
C546: x15+x19-y15_19 <=1 
C547: x15+x21-y15_21 <=1 
C548: x15+x22-y15_22 <=1 
C549: x15+x23-y15_23 <=1 
C550: x15+x24-y15_24 <=1 
C551: x15+x26-y15_26 <=1 
C552: x15+x27-y15_27 <=1 
C553: x15+x30-y15_30 <=1 
C554: x15+x31 <=1 
C555: x15+x32-y15_32 <=1 
C556: x15+x34 <=1 
C557: x15+x36 <=1 
C558: x15+x37-y15_37 <=1 
C559: x15+x38-y15_38 <=1 
C560: x15+x42 <=1 
C561: x15+x43 <=1 
C562: x15+x44-y15_44 <=1 
C563: x15+x45 <=1 
C564: x15+x49 <=1 
C565: x15+x50 <=1 
C566: x15+x51 <=1 
C567: x15+x53-y15_53 <=1 
C568: x15+x54-y15_54 <=1 
C569: x15+x55 <=1 
C570: x15+x56-y15_56 <=1 
C571: x15+x57-y15_57 <=1 
C572: x15+x59 <=1 
C573: x15+x60 <=1 
C574: x15+x61-y15_61 <=1 
C575: x15+x62-y15_62 <=1 
C576: x15+x63 <=1 
C577: x15+x64 <=1 
C578: x15+x65 <=1 
C579: x15+x66 <=1 
C580: x15+x67-y15_67 <=1 
C581: x16+x17-y16_17 <=1 
C582: x16+x18-y16_18 <=1 
C583: x16+x20-y16_20 <=1 
C584: x16+x21 <=1 
C585: x16+x24-y16_24 <=1 
C586: x16+x25 <=1 
C587: x16+x27-y16_27 <=1 
C588: x16+x28 <=1 
C589: x16+x29-y16_29 <=1 
C590: x16+x30-y16_30 <=1 
C591: x16+x31-y16_31 <=1 
C592: x16+x33-y16_33 <=1 
C593: x16+x35-y16_35 <=1 
C594: x16+x36 <=1 
C595: x16+x37-y16_37 <=1 
C596: x16+x38 <=1 
C597: x16+x39 <=1 
C598: x16+x40 <=1 
C599: x16+x41 <=1 
C600: x16+x42 <=1 
C601: x16+x45-y16_45 <=1 
C602: x16+x47 <=1 
C603: x16+x49-y16_49 <=1 
C604: x16+x51-y16_51 <=1 
C605: x16+x52 <=1 
C606: x16+x53 <=1 
C607: x16+x55 <=1 
C608: x16+x58-y16_58 <=1 
C609: x16+x59-y16_59 <=1 
C610: x16+x60 <=1 
C611: x16+x63-y16_63 <=1 
C612: x16+x66-y16_66 <=1 
C613: x17+x18-y17_18 <=1 
C614: x17+x19 <=1 
C615: x17+x20-y17_20 <=1 
C616: x17+x21 <=1 
C617: x17+x23-y17_23 <=1 
C618: x17+x26-y17_26 <=1 
C619: x17+x28 <=1 
C620: x17+x29-y17_29 <=1 
C621: x17+x30 <=1 
C622: x17+x36 <=1 
C623: x17+x37-y17_37 <=1 
C624: x17+x41-y17_41 <=1 
C625: x17+x43 <=1 
C626: x17+x46-y17_46 <=1 
C627: x17+x47-y17_47 <=1 
C628: x17+x50-y17_50 <=1 
C629: x17+x51 <=1 
C630: x17+x52-y17_52 <=1 
C631: x17+x54-y17_54 <=1 
C632: x17+x60-y17_60 <=1 
C633: x17+x64 <=1 
C634: x17+x67 <=1 
C635: x18+x20 <=1 
C636: x18+x22 <=1 
C637: x18+x23 <=1 
C638: x18+x24 <=1 
C639: x18+x25-y18_25 <=1 
C640: x18+x28 <=1 
C641: x18+x29 <=1 
C642: x18+x30 <=1 
C643: x18+x31-y18_31 <=1 
C644: x18+x33 <=1 
C645: x18+x34 <=1 
C646: x18+x35 <=1 
C647: x18+x36-y18_36 <=1 
C648: x18+x37 <=1 
C649: x18+x38-y18_38 <=1 
C650: x18+x40 <=1 
C651: x18+x42 <=1 
C652: x18+x43 <=1 
C653: x18+x44-y18_44 <=1 
C654: x18+x45 <=1 
C655: x18+x47-y18_47 <=1 
C656: x18+x48-y18_48 <=1 
C657: x18+x49 <=1 
C658: x18+x52 <=1 
C659: x18+x53 <=1 
C660: x18+x54 <=1 
C661: x18+x55-y18_55 <=1 
C662: x18+x56 <=1 
C663: x18+x58 <=1 
C664: x18+x59 <=1 
C665: x18+x60 <=1 
C666: x18+x62-y18_62 <=1 
C667: x18+x65-y18_65 <=1 
C668: x18+x67-y18_67 <=1 
C669: x19+x21 <=1 
C670: x19+x23 <=1 
C671: x19+x26 <=1 
C672: x19+x28 <=1 
C673: x19+x29 <=1 
C674: x19+x31 <=1 
C675: x19+x32-y19_32 <=1 
C676: x19+x33 <=1 
C677: x19+x34-y19_34 <=1 
C678: x19+x37 <=1 
C679: x19+x38-y19_38 <=1 
C680: x19+x40-y19_40 <=1 
C681: x19+x41 <=1 
C682: x19+x44-y19_44 <=1 
C683: x19+x49-y19_49 <=1 
C684: x19+x53-y19_53 <=1 
C685: x19+x54-y19_54 <=1 
C686: x19+x55 <=1 
C687: x19+x56-y19_56 <=1 
C688: x19+x59 <=1 
C689: x19+x60 <=1 
C690: x19+x61 <=1 
C691: x19+x65 <=1 
C692: x20+x21 <=1 
C693: x20+x22-y20_22 <=1 
C694: x20+x23 <=1 
C695: x20+x24 <=1 
C696: x20+x26 <=1 
C697: x20+x28-y20_28 <=1 
C698: x20+x30 <=1 
C699: x20+x31-y20_31 <=1 
C700: x20+x33 <=1 
C701: x20+x35-y20_35 <=1 
C702: x20+x38-y20_38 <=1 
C703: x20+x39-y20_39 <=1 
C704: x20+x42 <=1 
C705: x20+x46-y20_46 <=1 
C706: x20+x47-y20_47 <=1 
C707: x20+x48-y20_48 <=1 
C708: x20+x50-y20_50 <=1 
C709: x20+x52 <=1 
C710: x20+x53-y20_53 <=1 
C711: x20+x55-y20_55 <=1 
C712: x20+x56-y20_56 <=1 
C713: x20+x57-y20_57 <=1 
C714: x20+x59 <=1 
C715: x20+x61-y20_61 <=1 
C716: x20+x62-y20_62 <=1 
C717: x20+x65 <=1 
C718: x21+x22 <=1 
C719: x21+x25 <=1 
C720: x21+x27-y21_27 <=1 
C721: x21+x30-y21_30 <=1 
C722: x21+x31-y21_31 <=1 
C723: x21+x33-y21_33 <=1 
C724: x21+x34 <=1 
C725: x21+x35 <=1 
C726: x21+x37-y21_37 <=1 
C727: x21+x39 <=1 
C728: x21+x41 <=1 
C729: x21+x43 <=1 
C730: x21+x45-y21_45 <=1 
C731: x21+x46-y21_46 <=1 
C732: x21+x47 <=1 
C733: x21+x48 <=1 
C734: x21+x50-y21_50 <=1 
C735: x21+x51 <=1 
C736: x21+x52-y21_52 <=1 
C737: x21+x53 <=1 
C738: x21+x54 <=1 
C739: x21+x55-y21_55 <=1 
C740: x21+x56-y21_56 <=1 
C741: x21+x58-y21_58 <=1 
C742: x21+x60 <=1 
C743: x21+x62 <=1 
C744: x21+x63-y21_63 <=1 
C745: x21+x64-y21_64 <=1 
C746: x21+x65 <=1 
C747: x21+x66-y21_66 <=1 
C748: x22+x23 <=1 
C749: x22+x25 <=1 
C750: x22+x28 <=1 
C751: x22+x30 <=1 
C752: x22+x33-y22_33 <=1 
C753: x22+x36-y22_36 <=1 
C754: x22+x37-y22_37 <=1 
C755: x22+x39-y22_39 <=1 
C756: x22+x42 <=1 
C757: x22+x45-y22_45 <=1 
C758: x22+x47 <=1 
C759: x22+x48 <=1 
C760: x22+x49 <=1 
C761: x22+x50-y22_50 <=1 
C762: x22+x51 <=1 
C763: x22+x52 <=1 
C764: x22+x54 <=1 
C765: x22+x55 <=1 
C766: x22+x56-y22_56 <=1 
C767: x22+x58-y22_58 <=1 
C768: x22+x62-y22_62 <=1 
C769: x22+x63 <=1 
C770: x22+x66 <=1 
C771: x23+x26-y23_26 <=1 
C772: x23+x29-y23_29 <=1 
C773: x23+x30-y23_30 <=1 
C774: x23+x31-y23_31 <=1 
C775: x23+x32 <=1 
C776: x23+x34 <=1 
C777: x23+x35 <=1 
C778: x23+x36-y23_36 <=1 
C779: x23+x37-y23_37 <=1 
C780: x23+x38-y23_38 <=1 
C781: x23+x39-y23_39 <=1 
C782: x23+x40-y23_40 <=1 
C783: x23+x41-y23_41 <=1 
C784: x23+x42-y23_42 <=1 
C785: x23+x43-y23_43 <=1 
C786: x23+x45 <=1 
C787: x23+x46 <=1 
C788: x23+x47-y23_47 <=1 
C789: x23+x48-y23_48 <=1 
C790: x23+x49 <=1 
C791: x23+x50 <=1 
C792: x23+x51 <=1 
C793: x23+x52 <=1 
C794: x23+x54 <=1 
C795: x23+x57 <=1 
C796: x23+x59-y23_59 <=1 
C797: x23+x61-y23_61 <=1 
C798: x23+x62-y23_62 <=1 
C799: x23+x63 <=1 
C800: x23+x64-y23_64 <=1 
C801: x23+x66 <=1 
C802: x24+x25 <=1 
C803: x24+x27-y24_27 <=1 
C804: x24+x28 <=1 
C805: x24+x29-y24_29 <=1 
C806: x24+x30 <=1 
C807: x24+x33 <=1 
C808: x24+x38-y24_38 <=1 
C809: x24+x39-y24_39 <=1 
C810: x24+x45-y24_45 <=1 
C811: x24+x46-y24_46 <=1 
C812: x24+x50-y24_50 <=1 
C813: x24+x51 <=1 
C814: x24+x53 <=1 
C815: x24+x54-y24_54 <=1 
C816: x24+x55 <=1 
C817: x24+x56 <=1 
C818: x24+x57-y24_57 <=1 
C819: x24+x58-y24_58 <=1 
C820: x24+x61 <=1 
C821: x24+x62-y24_62 <=1 
C822: x24+x64 <=1 
C823: x24+x65-y24_65 <=1 
C824: x24+x66 <=1 
C825: x24+x67 <=1 
C826: x25+x26 <=1 
C827: x25+x28 <=1 
C828: x25+x29-y25_29 <=1 
C829: x25+x31 <=1 
C830: x25+x32-y25_32 <=1 
C831: x25+x33 <=1 
C832: x25+x34-y25_34 <=1 
C833: x25+x37-y25_37 <=1 
C834: x25+x38 <=1 
C835: x25+x40 <=1 
C836: x25+x41-y25_41 <=1 
C837: x25+x42 <=1 
C838: x25+x43-y25_43 <=1 
C839: x25+x47-y25_47 <=1 
C840: x25+x48-y25_48 <=1 
C841: x25+x49-y25_49 <=1 
C842: x25+x51-y25_51 <=1 
C843: x25+x52-y25_52 <=1 
C844: x25+x53 <=1 
C845: x25+x56 <=1 
C846: x25+x57-y25_57 <=1 
C847: x25+x59 <=1 
C848: x25+x61-y25_61 <=1 
C849: x25+x64 <=1 
C850: x25+x65-y25_65 <=1 
C851: x25+x66 <=1 
C852: x25+x67 <=1 
C853: x26+x27-y26_27 <=1 
C854: x26+x28-y26_28 <=1 
C855: x26+x29-y26_29 <=1 
C856: x26+x30-y26_30 <=1 
C857: x26+x33-y26_33 <=1 
C858: x26+x34-y26_34 <=1 
C859: x26+x35-y26_35 <=1 
C860: x26+x37-y26_37 <=1 
C861: x26+x38-y26_38 <=1 
C862: x26+x40 <=1 
C863: x26+x42 <=1 
C864: x26+x43 <=1 
C865: x26+x44-y26_44 <=1 
C866: x26+x45 <=1 
C867: x26+x46-y26_46 <=1 
C868: x26+x50-y26_50 <=1 
C869: x26+x51 <=1 
C870: x26+x52-y26_52 <=1 
C871: x26+x54 <=1 
C872: x26+x55 <=1 
C873: x26+x56-y26_56 <=1 
C874: x26+x61 <=1 
C875: x26+x62-y26_62 <=1 
C876: x26+x67 <=1 
C877: x27+x28-y27_28 <=1 
C878: x27+x30 <=1 
C879: x27+x32 <=1 
C880: x27+x33-y27_33 <=1 
C881: x27+x35-y27_35 <=1 
C882: x27+x37 <=1 
C883: x27+x40 <=1 
C884: x27+x41 <=1 
C885: x27+x45-y27_45 <=1 
C886: x27+x47 <=1 
C887: x27+x48 <=1 
C888: x27+x49-y27_49 <=1 
C889: x27+x50 <=1 
C890: x27+x52 <=1 
C891: x27+x53 <=1 
C892: x27+x55 <=1 
C893: x27+x56 <=1 
C894: x27+x57 <=1 
C895: x27+x58 <=1 
C896: x27+x60 <=1 
C897: x27+x63 <=1 
C898: x27+x65 <=1 
C899: x27+x66 <=1 
C900: x28+x29 <=1 
C901: x28+x30 <=1 
C902: x28+x32 <=1 
C903: x28+x33 <=1 
C904: x28+x35 <=1 
C905: x28+x37 <=1 
C906: x28+x43-y28_43 <=1 
C907: x28+x45 <=1 
C908: x28+x47-y28_47 <=1 
C909: x28+x50 <=1 
C910: x28+x51 <=1 
C911: x28+x52 <=1 
C912: x28+x53-y28_53 <=1 
C913: x28+x54 <=1 
C914: x28+x56 <=1 
C915: x28+x59-y28_59 <=1 
C916: x28+x60 <=1 
C917: x28+x63-y28_63 <=1 
C918: x28+x64 <=1 
C919: x28+x65-y28_65 <=1 
C920: x28+x66-y28_66 <=1 
C921: x29+x33 <=1 
C922: x29+x35-y29_35 <=1 
C923: x29+x36-y29_36 <=1 
C924: x29+x37 <=1 
C925: x29+x41-y29_41 <=1 
C926: x29+x42-y29_42 <=1 
C927: x29+x43 <=1 
C928: x29+x44-y29_44 <=1 
C929: x29+x45-y29_45 <=1 
C930: x29+x46 <=1 
C931: x29+x47-y29_47 <=1 
C932: x29+x48-y29_48 <=1 
C933: x29+x49-y29_49 <=1 
C934: x29+x50-y29_50 <=1 
C935: x29+x51 <=1 
C936: x29+x54 <=1 
C937: x29+x57-y29_57 <=1 
C938: x29+x58 <=1 
C939: x29+x59 <=1 
C940: x29+x60 <=1 
C941: x29+x61 <=1 
C942: x29+x62-y29_62 <=1 
C943: x29+x65-y29_65 <=1 
C944: x29+x66-y29_66 <=1 
C945: x29+x67 <=1 
C946: x30+x31-y30_31 <=1 
C947: x30+x32 <=1 
C948: x30+x34 <=1 
C949: x30+x35-y30_35 <=1 
C950: x30+x37-y30_37 <=1 
C951: x30+x40 <=1 
C952: x30+x41 <=1 
C953: x30+x43 <=1 
C954: x30+x44 <=1 
C955: x30+x46-y30_46 <=1 
C956: x30+x48-y30_48 <=1 
C957: x30+x51 <=1 
C958: x30+x52-y30_52 <=1 
C959: x30+x53-y30_53 <=1 
C960: x30+x54-y30_54 <=1 
C961: x30+x55-y30_55 <=1 
C962: x30+x56-y30_56 <=1 
C963: x30+x57 <=1 
C964: x30+x60 <=1 
C965: x30+x61-y30_61 <=1 
C966: x30+x62-y30_62 <=1 
C967: x30+x63 <=1 
C968: x30+x64 <=1 
C969: x30+x66 <=1 
C970: x31+x32 <=1 
C971: x31+x34-y31_34 <=1 
C972: x31+x37 <=1 
C973: x31+x41 <=1 
C974: x31+x43 <=1 
C975: x31+x45-y31_45 <=1 
C976: x31+x46-y31_46 <=1 
C977: x31+x47 <=1 
C978: x31+x48-y31_48 <=1 
C979: x31+x49 <=1 
C980: x31+x50-y31_50 <=1 
C981: x31+x51-y31_51 <=1 
C982: x31+x52-y31_52 <=1 
C983: x31+x53-y31_53 <=1 
C984: x31+x55 <=1 
C985: x31+x60-y31_60 <=1 
C986: x31+x61-y31_61 <=1 
C987: x31+x64-y31_64 <=1 
C988: x31+x67-y31_67 <=1 
C989: x32+x33 <=1 
C990: x32+x36 <=1 
C991: x32+x37-y32_37 <=1 
C992: x32+x38 <=1 
C993: x32+x39-y32_39 <=1 
C994: x32+x41 <=1 
C995: x32+x42-y32_42 <=1 
C996: x32+x44 <=1 
C997: x32+x48 <=1 
C998: x32+x49 <=1 
C999: x32+x50 <=1 
C1000: x32+x55-y32_55 <=1 
C1001: x32+x58 <=1 
C1002: x32+x60 <=1 
C1003: x32+x61-y32_61 <=1 
C1004: x32+x62 <=1 
C1005: x32+x63 <=1 
C1006: x32+x64-y32_64 <=1 
C1007: x32+x65 <=1 
C1008: x32+x67 <=1 
C1009: x33+x34 <=1 
C1010: x33+x35-y33_35 <=1 
C1011: x33+x41-y33_41 <=1 
C1012: x33+x42 <=1 
C1013: x33+x43 <=1 
C1014: x33+x44 <=1 
C1015: x33+x45-y33_45 <=1 
C1016: x33+x47-y33_47 <=1 
C1017: x33+x48 <=1 
C1018: x33+x52 <=1 
C1019: x33+x53 <=1 
C1020: x33+x54 <=1 
C1021: x33+x57 <=1 
C1022: x33+x58 <=1 
C1023: x33+x60 <=1 
C1024: x33+x61 <=1 
C1025: x33+x62 <=1 
C1026: x33+x67 <=1 
C1027: x34+x35-y34_35 <=1 
C1028: x34+x36 <=1 
C1029: x34+x39 <=1 
C1030: x34+x40 <=1 
C1031: x34+x41-y34_41 <=1 
C1032: x34+x42 <=1 
C1033: x34+x43 <=1 
C1034: x34+x46 <=1 
C1035: x34+x47-y34_47 <=1 
C1036: x34+x48 <=1 
C1037: x34+x50-y34_50 <=1 
C1038: x34+x52 <=1 
C1039: x34+x53 <=1 
C1040: x34+x54-y34_54 <=1 
C1041: x34+x55-y34_55 <=1 
C1042: x34+x56 <=1 
C1043: x34+x57-y34_57 <=1 
C1044: x34+x58-y34_58 <=1 
C1045: x34+x59 <=1 
C1046: x34+x60 <=1 
C1047: x34+x62 <=1 
C1048: x34+x64-y34_64 <=1 
C1049: x34+x65 <=1 
C1050: x34+x67 <=1 
C1051: x35+x36-y35_36 <=1 
C1052: x35+x38 <=1 
C1053: x35+x39 <=1 
C1054: x35+x41-y35_41 <=1 
C1055: x35+x43-y35_43 <=1 
C1056: x35+x47-y35_47 <=1 
C1057: x35+x48 <=1 
C1058: x35+x50-y35_50 <=1 
C1059: x35+x51-y35_51 <=1 
C1060: x35+x52 <=1 
C1061: x35+x55 <=1 
C1062: x35+x56-y35_56 <=1 
C1063: x35+x57 <=1 
C1064: x35+x58 <=1 
C1065: x35+x59 <=1 
C1066: x35+x60 <=1 
C1067: x35+x61 <=1 
C1068: x35+x62 <=1 
C1069: x35+x65 <=1 
C1070: x35+x66-y35_66 <=1 
C1071: x35+x67 <=1 
C1072: x36+x39-y36_39 <=1 
C1073: x36+x41-y36_41 <=1 
C1074: x36+x43-y36_43 <=1 
C1075: x36+x44 <=1 
C1076: x36+x45-y36_45 <=1 
C1077: x36+x46 <=1 
C1078: x36+x47-y36_47 <=1 
C1079: x36+x48-y36_48 <=1 
C1080: x36+x50-y36_50 <=1 
C1081: x36+x51-y36_51 <=1 
C1082: x36+x52-y36_52 <=1 
C1083: x36+x53 <=1 
C1084: x36+x59-y36_59 <=1 
C1085: x36+x65-y36_65 <=1 
C1086: x36+x67 <=1 
C1087: x37+x38 <=1 
C1088: x37+x42-y37_42 <=1 
C1089: x37+x43 <=1 
C1090: x37+x44 <=1 
C1091: x37+x45 <=1 
C1092: x37+x46-y37_46 <=1 
C1093: x37+x47-y37_47 <=1 
C1094: x37+x49 <=1 
C1095: x37+x50-y37_50 <=1 
C1096: x37+x53 <=1 
C1097: x37+x54-y37_54 <=1 
C1098: x37+x55-y37_55 <=1 
C1099: x37+x56-y37_56 <=1 
C1100: x37+x58-y37_58 <=1 
C1101: x37+x60-y37_60 <=1 
C1102: x37+x63-y37_63 <=1 
C1103: x37+x64-y37_64 <=1 
C1104: x37+x66 <=1 
C1105: x38+x39 <=1 
C1106: x38+x42 <=1 
C1107: x38+x43-y38_43 <=1 
C1108: x38+x45-y38_45 <=1 
C1109: x38+x46 <=1 
C1110: x38+x47 <=1 
C1111: x38+x50 <=1 
C1112: x38+x51-y38_51 <=1 
C1113: x38+x52-y38_52 <=1 
C1114: x38+x53-y38_53 <=1 
C1115: x38+x54 <=1 
C1116: x38+x56 <=1 
C1117: x38+x57 <=1 
C1118: x38+x58-y38_58 <=1 
C1119: x38+x59-y38_59 <=1 
C1120: x38+x62 <=1 
C1121: x38+x63 <=1 
C1122: x38+x64 <=1 
C1123: x38+x65 <=1 
C1124: x38+x66 <=1 
C1125: x38+x67-y38_67 <=1 
C1126: x39+x41 <=1 
C1127: x39+x45 <=1 
C1128: x39+x48 <=1 
C1129: x39+x49 <=1 
C1130: x39+x50-y39_50 <=1 
C1131: x39+x52-y39_52 <=1 
C1132: x39+x53-y39_53 <=1 
C1133: x39+x55 <=1 
C1134: x39+x57-y39_57 <=1 
C1135: x39+x58 <=1 
C1136: x39+x65 <=1 
C1137: x39+x66-y39_66 <=1 
C1138: x40+x41 <=1 
C1139: x40+x42 <=1 
C1140: x40+x47-y40_47 <=1 
C1141: x40+x49 <=1 
C1142: x40+x51-y40_51 <=1 
C1143: x40+x52-y40_52 <=1 
C1144: x40+x53 <=1 
C1145: x40+x57 <=1 
C1146: x40+x59-y40_59 <=1 
C1147: x40+x60-y40_60 <=1 
C1148: x40+x61 <=1 
C1149: x40+x62 <=1 
C1150: x40+x64 <=1 
C1151: x40+x65 <=1 
C1152: x40+x67-y40_67 <=1 
C1153: x41+x43 <=1 
C1154: x41+x45-y41_45 <=1 
C1155: x41+x48 <=1 
C1156: x41+x49-y41_49 <=1 
C1157: x41+x50-y41_50 <=1 
C1158: x41+x51 <=1 
C1159: x41+x52 <=1 
C1160: x41+x53-y41_53 <=1 
C1161: x41+x54-y41_54 <=1 
C1162: x41+x55-y41_55 <=1 
C1163: x41+x58-y41_58 <=1 
C1164: x41+x63 <=1 
C1165: x41+x65 <=1 
C1166: x41+x67 <=1 
C1167: x42+x43 <=1 
C1168: x42+x46 <=1 
C1169: x42+x48 <=1 
C1170: x42+x49-y42_49 <=1 
C1171: x42+x50 <=1 
C1172: x42+x51 <=1 
C1173: x42+x52 <=1 
C1174: x42+x53-y42_53 <=1 
C1175: x42+x54 <=1 
C1176: x42+x55 <=1 
C1177: x42+x56-y42_56 <=1 
C1178: x42+x57 <=1 
C1179: x42+x59-y42_59 <=1 
C1180: x42+x60 <=1 
C1181: x42+x65 <=1 
C1182: x43+x47 <=1 
C1183: x43+x48 <=1 
C1184: x43+x51-y43_51 <=1 
C1185: x43+x53-y43_53 <=1 
C1186: x43+x56 <=1 
C1187: x43+x59 <=1 
C1188: x43+x61-y43_61 <=1 
C1189: x43+x64 <=1 
C1190: x44+x46-y44_46 <=1 
C1191: x44+x49-y44_49 <=1 
C1192: x44+x50-y44_50 <=1 
C1193: x44+x52 <=1 
C1194: x44+x54 <=1 
C1195: x44+x56 <=1 
C1196: x44+x61 <=1 
C1197: x44+x62-y44_62 <=1 
C1198: x44+x66-y44_66 <=1 
C1199: x44+x67 <=1 
C1200: x45+x46 <=1 
C1201: x45+x47 <=1 
C1202: x45+x48-y45_48 <=1 
C1203: x45+x49 <=1 
C1204: x45+x51 <=1 
C1205: x45+x52-y45_52 <=1 
C1206: x45+x53 <=1 
C1207: x45+x55 <=1 
C1208: x45+x56-y45_56 <=1 
C1209: x45+x57-y45_57 <=1 
C1210: x45+x58-y45_58 <=1 
C1211: x45+x59-y45_59 <=1 
C1212: x45+x61 <=1 
C1213: x45+x62-y45_62 <=1 
C1214: x45+x64-y45_64 <=1 
C1215: x45+x65-y45_65 <=1 
C1216: x45+x66-y45_66 <=1 
C1217: x45+x67-y45_67 <=1 
C1218: x46+x47-y46_47 <=1 
C1219: x46+x49-y46_49 <=1 
C1220: x46+x51-y46_51 <=1 
C1221: x46+x53 <=1 
C1222: x46+x56 <=1 
C1223: x46+x58-y46_58 <=1 
C1224: x46+x60-y46_60 <=1 
C1225: x46+x62 <=1 
C1226: x46+x63 <=1 
C1227: x46+x64 <=1 
C1228: x46+x65-y46_65 <=1 
C1229: x46+x66-y46_66 <=1 
C1230: x47+x48-y47_48 <=1 
C1231: x47+x51 <=1 
C1232: x47+x52-y47_52 <=1 
C1233: x47+x55 <=1 
C1234: x47+x57 <=1 
C1235: x47+x58 <=1 
C1236: x47+x60-y47_60 <=1 
C1237: x47+x61 <=1 
C1238: x47+x62-y47_62 <=1 
C1239: x47+x63-y47_63 <=1 
C1240: x47+x64 <=1 
C1241: x47+x65 <=1 
C1242: x47+x66-y47_66 <=1 
C1243: x48+x49 <=1 
C1244: x48+x50 <=1 
C1245: x48+x51 <=1 
C1246: x48+x52-y48_52 <=1 
C1247: x48+x53 <=1 
C1248: x48+x54-y48_54 <=1 
C1249: x48+x57 <=1 
C1250: x48+x58 <=1 
C1251: x48+x59 <=1 
C1252: x48+x60 <=1 
C1253: x48+x67 <=1 
C1254: x49+x50 <=1 
C1255: x49+x51-y49_51 <=1 
C1256: x49+x52 <=1 
C1257: x49+x53-y49_53 <=1 
C1258: x49+x54 <=1 
C1259: x49+x55-y49_55 <=1 
C1260: x49+x56 <=1 
C1261: x49+x57 <=1 
C1262: x49+x60 <=1 
C1263: x49+x62 <=1 
C1264: x49+x63 <=1 
C1265: x49+x64-y49_64 <=1 
C1266: x49+x65-y49_65 <=1 
C1267: x49+x66 <=1 
C1268: x49+x67-y49_67 <=1 
C1269: x50+x51 <=1 
C1270: x50+x53-y50_53 <=1 
C1271: x50+x55 <=1 
C1272: x50+x57 <=1 
C1273: x50+x60-y50_60 <=1 
C1274: x50+x61-y50_61 <=1 
C1275: x50+x62-y50_62 <=1 
C1276: x50+x64 <=1 
C1277: x50+x65-y50_65 <=1 
C1278: x50+x66 <=1 
C1279: x50+x67 <=1 
C1280: x51+x52 <=1 
C1281: x51+x53 <=1 
C1282: x51+x54 <=1 
C1283: x51+x55-y51_55 <=1 
C1284: x51+x56 <=1 
C1285: x51+x57 <=1 
C1286: x51+x60-y51_60 <=1 
C1287: x51+x62 <=1 
C1288: x51+x63 <=1 
C1289: x51+x64 <=1 
C1290: x51+x65 <=1 
C1291: x51+x67 <=1 
C1292: x52+x53 <=1 
C1293: x52+x58-y52_58 <=1 
C1294: x52+x59 <=1 
C1295: x52+x60 <=1 
C1296: x52+x64-y52_64 <=1 
C1297: x52+x65-y52_65 <=1 
C1298: x52+x66 <=1 
C1299: x53+x55-y53_55 <=1 
C1300: x53+x58-y53_58 <=1 
C1301: x53+x59-y53_59 <=1 
C1302: x53+x60-y53_60 <=1 
C1303: x53+x61 <=1 
C1304: x53+x62 <=1 
C1305: x53+x64 <=1 
C1306: x53+x65 <=1 
C1307: x53+x67 <=1 
C1308: x54+x55 <=1 
C1309: x54+x58-y54_58 <=1 
C1310: x54+x59-y54_59 <=1 
C1311: x54+x60-y54_60 <=1 
C1312: x54+x61 <=1 
C1313: x54+x62-y54_62 <=1 
C1314: x54+x64-y54_64 <=1 
C1315: x54+x65-y54_65 <=1 
C1316: x55+x58-y55_58 <=1 
C1317: x55+x60 <=1 
C1318: x55+x61-y55_61 <=1 
C1319: x55+x63 <=1 
C1320: x55+x64-y55_64 <=1 
C1321: x55+x67 <=1 
C1322: x56+x57-y56_57 <=1 
C1323: x56+x58 <=1 
C1324: x56+x60 <=1 
C1325: x56+x61-y56_61 <=1 
C1326: x56+x63-y56_63 <=1 
C1327: x56+x67 <=1 
C1328: x57+x58-y57_58 <=1 
C1329: x57+x59-y57_59 <=1 
C1330: x57+x62-y57_62 <=1 
C1331: x57+x67-y57_67 <=1 
C1332: x58+x59-y58_59 <=1 
C1333: x58+x62 <=1 
C1334: x58+x63-y58_63 <=1 
C1335: x59+x60-y59_60 <=1 
C1336: x59+x61-y59_61 <=1 
C1337: x59+x62-y59_62 <=1 
C1338: x59+x63 <=1 
C1339: x59+x65-y59_65 <=1 
C1340: x59+x66-y59_66 <=1 
C1341: x59+x67-y59_67 <=1 
C1342: x60+x61 <=1 
C1343: x60+x63 <=1 
C1344: x61+x66-y61_66 <=1 
C1345: x61+x67-y61_67 <=1 
C1346: x62+x63-y62_63 <=1 
C1347: x62+x64 <=1 
C1348: x62+x67 <=1 
C1349: x63+x64-y63_64 <=1 
C1350: x63+x65-y63_65 <=1 
C1351: x63+x67 <=1 
C1352: x64+x65-y64_65 <=1 
C1353: x64+x66-y64_66 <=1 
C1354: x64+x67 <=1 
C1355: x66+x67 <=1 

binary
x0
x1
x2
x3
x4
x5
x6
x7
x8
x9
x10
x11
x12
x13
x14
x15
x16
x17
x18
x19
x20
x21
x22
x23
x24
x25
x26
x27
x28
x29
x30
x31
x32
x33
x34
x35
x36
x37
x38
x39
x40
x41
x42
x43
x44
x45
x46
x47
x48
x49
x50
x51
x52
x53
x54
x55
x56
x57
x58
x59
x60
x61
x62
x63
x64
x65
x66
x67
