problem_generation/data/GISP/train/er_n=68_m=1355_p=0.60_SET2_setparam=100.00_alpha=0.50_362.sol
objective value:                                 1273
x6                                                  1 	(obj:100)
x16                                                 1 	(obj:100)
x17                                                 1 	(obj:100)
x22                                                 1 	(obj:100)
x24                                                 1 	(obj:100)
x26                                                 1 	(obj:100)
x31                                                 1 	(obj:100)
x44                                                 1 	(obj:100)
x46                                                 1 	(obj:100)
x57                                                 1 	(obj:100)
x58                                                 1 	(obj:100)
x59                                                 1 	(obj:100)
x65                                                 1 	(obj:100)
y6_57                                               1 	(obj:-1)
y24_65                                              1 	(obj:-1)
y6_65                                               1 	(obj:-1)
y24_46                                              1 	(obj:-1)
y16_59                                              1 	(obj:-1)
y16_31                                              1 	(obj:-1)
y57_59                                              1 	(obj:-1)
y16_17                                              1 	(obj:-1)
y46_58                                              1 	(obj:-1)
y57_58                                              1 	(obj:-1)
y44_46                                              1 	(obj:-1)
y22_58                                              1 	(obj:-1)
y26_46                                              1 	(obj:-1)
y24_58                                              1 	(obj:-1)
y17_46                                              1 	(obj:-1)
y16_58                                              1 	(obj:-1)
y6_22                                               1 	(obj:-1)
y6_58                                               1 	(obj:-1)
y24_57                                              1 	(obj:-1)
y6_17                                               1 	(obj:-1)
y31_46                                              1 	(obj:-1)
y58_59                                              1 	(obj:-1)
y17_26                                              1 	(obj:-1)
y16_24                                              1 	(obj:-1)
y46_65                                              1 	(obj:-1)
y59_65                                              1 	(obj:-1)
y26_44                                              1 	(obj:-1)
